c This is UnifRandomKSATGenerator
c uniform random 3-SAT generated instance with: 
c clause length: 3 
c number variables: 20 
c number clauses: 85 
c clause to variable ratio: 4.27 
c random number generator name: SHA1PRNG 
c random number generator provider: SUN 
c random number generator seed: 6851865505067825009 
p cnf 20 85
-10 -7 6 0
9 19 -6 0
-11 -20 15 0
-17 -13 14 0
-9 18 -5 0
-11 19 -12 0
-10 -19 -16 0
-12 -13 -7 0
-10 2 6 0
18 19 -6 0
2 4 -6 0
16 17 -3 0
10 4 -5 0
-4 11 6 0
-10 13 -16 0
-10 2 20 0
-10 11 -12 0
8 1 19 0
-17 18 -12 0
19 12 7 0
-1 4 20 0
-6 -15 -7 0
16 11 -14 0
-13 -14 -7 0
-9 20 13 0
1 -11 12 0
-9 -20 14 0
3 20 -14 0
9 -11 -7 0
18 -15 -7 0
8 18 15 0
-17 18 -11 0
17 9 5 0
16 -3 -5 0
-20 -5 -8 0
-20 -4 -8 0
-1 -18 -4 0
2 -20 -8 0
-9 6 7 0
2 -19 13 0
-2 12 13 0
16 19 -4 0
-2 11 -13 0
8 -10 -4 0
16 -3 10 0
-17 -2 18 0
8 4 13 0
11 -6 -7 0
8 16 20 0
17 -12 -14 0
-19 11 15 0
-2 -3 -14 0
-17 -1 -9 0
3 5 -7 0
16 9 -12 0
8 -5 -15 0
-3 11 13 0
20 -14 5 0
-1 -9 11 0
1 19 -12 0
11 5 14 0
17 -10 -3 0
-11 19 -5 0
16 -11 -14 0
17 -15 -16 0
-17 -7 -8 0
-17 -13 -16 0
-2 -14 6 0
10 12 -8 0
11 -20 13 0
-11 -19 5 0
-17 2 -15 0
8 -1 -2 0
16 -13 -7 0
-1 17 -2 0
16 -10 17 0
-17 2 12 0
1 14 6 0
-17 -12 -13 0
-19 13 7 0
-18 -19 20 0
-11 19 15 0
8 1 -14 0
19 -15 7 0
3 -13 15 0
